
Gurobi 9.5.2 (mac64[arm]) logging started Fri Apr 28 17:24:04 2023

Set parameter LogFile to value "Java/output/iterative_model_2_machine/scenario_seed_0_nJob_20_machineCount_2/mip_increment_2/log.txt"
Gurobi Optimizer version 9.5.2 build v9.5.2rc0 (mac64[arm])
Thread count: 8 physical cores, 8 logical processors, using up to 8 threads
Optimize a model with 646 rows, 2040 columns and 16662 nonzeros
Model fingerprint: 0x141ad740
Variable types: 0 continuous, 2040 integer (2040 binary)
Coefficient statistics:
  Matrix range     [1e+00, 1e+02]
  Objective range  [6e+01, 1e+06]
  Bounds range     [1e+00, 1e+00]
  RHS range        [1e+00, 1e+00]
Presolve removed 260 rows and 842 columns
Presolve time: 0.03s
Presolved: 386 rows, 1198 columns, 9617 nonzeros
Variable types: 0 continuous, 1198 integer (1198 binary)
Found heuristic solution: objective 394976.00000

Root relaxation: objective 2.941011e+05, 99 iterations, 0.00 seconds (0.00 work units)

    Nodes    |    Current Node    |     Objective Bounds      |     Work
 Expl Unexpl |  Obj  Depth IntInf | Incumbent    BestBd   Gap | It/Node Time

     0     0 294101.148    0   23 394976.000 294101.148  25.5%     -    0s
H    0     0                    385984.00000 294101.148  23.8%     -    0s
     0     0 303438.584    0   36 385984.000 303438.584  21.4%     -    0s
     0     0 303438.584    0   23 385984.000 303438.584  21.4%     -    0s
     0     0 312448.197    0   38 385984.000 312448.197  19.1%     -    0s
H    0     0                    384064.00000 312448.197  18.6%     -    0s
H    0     0                    349152.00000 312448.197  10.5%     -    0s
H    0     0                    332480.00000 312448.197  6.02%     -    0s
     0     0 317008.000    0   35 332480.000 317008.000  4.65%     -    0s
     0     0 328063.190    0   38 332480.000 328063.190  1.33%     -    0s

Cutting planes:
  Gomory: 2
  Cover: 2
  Clique: 4
  MIR: 4
  StrongCG: 2
  GUB cover: 8
  Zero half: 3
  RLT: 1

Explored 1 nodes (402 simplex iterations) in 0.08 seconds (0.11 work units)
Thread count was 8 (of 8 available processors)

Solution count 6: 332480 349152 384064 ... 394976

Optimal solution found (tolerance 1.00e-04)
Best objective 3.324800000000e+05, best bound 3.324800000000e+05, gap 0.0000%

Gurobi 9.5.2 (mac64[arm]) logging started Fri Apr 28 17:24:04 2023

Set parameter LogFile to value "Java/output/iterative_model_2_machine/scenario_seed_0_nJob_20_machineCount_2/mip_increment_2/log.txt"
Gurobi Optimizer version 9.5.2 build v9.5.2rc0 (mac64[arm])
Thread count: 8 physical cores, 8 logical processors, using up to 8 threads
Optimize a model with 648 rows, 1441 columns and 10946 nonzeros
Model fingerprint: 0x74b3abe5
Variable types: 0 continuous, 1441 integer (1441 binary)
Coefficient statistics:
  Matrix range     [1e+00, 1e+02]
  Objective range  [4e+01, 2e+05]
  Bounds range     [1e+00, 1e+00]
  RHS range        [1e+00, 1e+00]
Presolve removed 349 rows and 560 columns
Presolve time: 0.01s
Presolved: 299 rows, 881 columns, 6355 nonzeros
Variable types: 0 continuous, 881 integer (881 binary)

Root relaxation: objective 1.620565e+05, 96 iterations, 0.00 seconds (0.00 work units)

    Nodes    |    Current Node    |     Objective Bounds      |     Work
 Expl Unexpl |  Obj  Depth IntInf | Incumbent    BestBd   Gap | It/Node Time

     0     0 162056.500    0   14          - 162056.500      -     -    0s
H    0     0                    288476.00000 162056.500  43.8%     -    0s
H    0     0                    175948.00000 162056.500  7.90%     -    0s
H    0     0                    173344.00000 162056.500  6.51%     -    0s
H    0     0                    168376.00000 162056.500  3.75%     -    0s
     0     0 164580.800    0    8 168376.000 164580.800  2.25%     -    0s
     0     0     cutoff    0      168376.000 168376.000  0.00%     -    0s

Explored 1 nodes (145 simplex iterations) in 0.05 seconds (0.04 work units)
Thread count was 8 (of 8 available processors)

Solution count 6: 168376 168376 173344 ... 288476

Optimal solution found (tolerance 1.00e-04)
Best objective 1.683760000000e+05, best bound 1.683760000000e+05, gap 0.0000%

Gurobi 9.5.2 (mac64[arm]) logging started Fri Apr 28 17:24:04 2023

Set parameter LogFile to value "Java/output/iterative_model_2_machine/scenario_seed_0_nJob_20_machineCount_2/mip_increment_2/log.txt"
Gurobi Optimizer version 9.5.2 build v9.5.2rc0 (mac64[arm])
Thread count: 8 physical cores, 8 logical processors, using up to 8 threads
Optimize a model with 648 rows, 917 columns and 6576 nonzeros
Model fingerprint: 0x9ba1dbb9
Variable types: 0 continuous, 917 integer (917 binary)
Coefficient statistics:
  Matrix range     [1e+00, 1e+02]
  Objective range  [8e+01, 2e+04]
  Bounds range     [1e+00, 1e+00]
  RHS range        [1e+00, 1e+00]
Presolve removed 471 rows and 367 columns
Presolve time: 0.01s
Presolved: 177 rows, 550 columns, 3488 nonzeros
Variable types: 0 continuous, 550 integer (550 binary)
Found heuristic solution: objective 39294.000000

Root relaxation: objective 2.662900e+04, 119 iterations, 0.00 seconds (0.00 work units)

    Nodes    |    Current Node    |     Objective Bounds      |     Work
 Expl Unexpl |  Obj  Depth IntInf | Incumbent    BestBd   Gap | It/Node Time

H    0     0                    26629.000000    0.00000   100%     -    0s
     0     0          -    0      26629.0000 26629.0000  0.00%     -    0s

Explored 1 nodes (220 simplex iterations) in 0.01 seconds (0.02 work units)
Thread count was 8 (of 8 available processors)

Solution count 2: 26629 39294 

Optimal solution found (tolerance 1.00e-04)
Best objective 2.662900000000e+04, best bound 2.662900000000e+04, gap 0.0000%

Gurobi 9.5.2 (mac64[arm]) logging started Fri Apr 28 17:24:04 2023

Set parameter LogFile to value "Java/output/iterative_model_2_machine/scenario_seed_0_nJob_20_machineCount_2/mip_increment_2/log.txt"
Gurobi Optimizer version 9.5.2 build v9.5.2rc0 (mac64[arm])
Thread count: 8 physical cores, 8 logical processors, using up to 8 threads
Optimize a model with 1318 rows, 12726 columns and 161024 nonzeros
Model fingerprint: 0x9f530fea
Variable types: 0 continuous, 12726 integer (12726 binary)
Coefficient statistics:
  Matrix range     [1e+00, 1e+02]
  Objective range  [1e+00, 1e+06]
  Bounds range     [1e+00, 1e+00]
  RHS range        [1e+00, 1e+00]

Warning: Completing partial solution with 12663 unfixed non-continuous variables out of 12726
User MIP start produced solution with objective 449308 (0.01s)
Loaded user MIP start with objective 449308

Presolve removed 238 rows and 3664 columns
Presolve time: 0.18s
Presolved: 1080 rows, 9062 columns, 114190 nonzeros
Variable types: 0 continuous, 9062 integer (9062 binary)

Root relaxation: objective 3.422755e+05, 6809 iterations, 0.39 seconds (0.88 work units)

    Nodes    |    Current Node    |     Objective Bounds      |     Work
 Expl Unexpl |  Obj  Depth IntInf | Incumbent    BestBd   Gap | It/Node Time

     0     0 342275.539    0  210 449308.000 342275.539  23.8%     -    0s
H    0     0                    449290.00000 342275.539  23.8%     -    0s
H    0     0                    447792.00000 342275.539  23.6%     -    0s
     0     0 355048.390    0  283 447792.000 355048.390  20.7%     -    1s
     0     0 357631.648    0  281 447792.000 357631.648  20.1%     -    1s
H    0     0                    441856.00000 376417.892  14.8%     -    2s
     0     0 376417.892    0  345 441856.000 376417.892  14.8%     -    2s
     0     0 376746.588    0  334 441856.000 376746.588  14.7%     -    2s
     0     0 377405.471    0  333 441856.000 377405.471  14.6%     -    2s
     0     0 377406.063    0  334 441856.000 377406.063  14.6%     -    2s
     0     0 384625.226    0  348 441856.000 384625.226  13.0%     -    2s
H    0     0                    434676.00000 384625.226  11.5%     -    3s
     0     0 385736.432    0  369 434676.000 385736.432  11.3%     -    3s
     0     0 385744.430    0  388 434676.000 385744.430  11.3%     -    3s
     0     0 392982.599    0  384 434676.000 392982.599  9.59%     -    4s
     0     0 394855.184    0  403 434676.000 394855.184  9.16%     -    4s
     0     0 394998.620    0  407 434676.000 394998.620  9.13%     -    4s
     0     0 394999.541    0  412 434676.000 394999.541  9.13%     -    4s
     0     0 398896.803    0  413 434676.000 398896.803  8.23%     -    5s
     0     0 398896.803    0  222 434676.000 398896.803  8.23%     -    5s
     0     0 398896.803    0  342 434676.000 398896.803  8.23%     -    6s
     0     0 398896.803    0  368 434676.000 398896.803  8.23%     -    6s
     0     0 399257.916    0  386 434676.000 399257.916  8.15%     -    6s
     0     0 400188.002    0  396 434676.000 400188.002  7.93%     -    6s
     0     0 400194.978    0  406 434676.000 400194.978  7.93%     -    6s
     0     0 402514.994    0  389 434676.000 402514.994  7.40%     -    7s
     0     0 402896.953    0  430 434676.000 402896.953  7.31%     -    7s
     0     0 402944.420    0  438 434676.000 402944.420  7.30%     -    7s
     0     0 402948.233    0  439 434676.000 402948.233  7.30%     -    7s
     0     0 406615.137    0  454 434676.000 406615.137  6.46%     -    8s
     0     0 407691.759    0  433 434676.000 407691.759  6.21%     -    8s
     0     0 408253.409    0  445 434676.000 408253.409  6.08%     -    8s
     0     0 408337.574    0  458 434676.000 408337.574  6.06%     -    8s
     0     0 408364.077    0  456 434676.000 408364.077  6.05%     -    9s
     0     0 408367.657    0  480 434676.000 408367.657  6.05%     -    9s
     0     0 409513.972    0  437 434676.000 409513.972  5.79%     -    9s
     0     0 409924.889    0  447 434676.000 409924.889  5.69%     -    9s
     0     0 409997.831    0  442 434676.000 409997.831  5.68%     -   10s
     0     0 410040.673    0  417 434676.000 410040.673  5.67%     -   10s
     0     0 410044.858    0  446 434676.000 410044.858  5.67%     -   10s
     0     0 410165.343    0  457 434676.000 410165.343  5.64%     -   10s
H    0     0                    428214.00000 410165.343  4.21%     -   10s
     0     0 410168.775    0  453 428214.000 410168.775  4.21%     -   10s
     0     0 410181.715    0  444 428214.000 410181.715  4.21%     -   10s
     0     0 410181.715    0  433 428214.000 410181.715  4.21%     -   10s
     0     2 410239.876    0  424 428214.000 410239.876  4.20%     -   11s
H   32    28                    414970.00000 414527.077  0.11%  1786   13s

Cutting planes:
  Cover: 11
  Clique: 85
  MIR: 103
  StrongCG: 61
  GUB cover: 92
  Zero half: 2
  RLT: 18

Explored 76 nodes (137759 simplex iterations) in 14.10 seconds (32.26 work units)
Thread count was 8 (of 8 available processors)

Solution count 7: 414970 428214 434676 ... 449308

Optimal solution found (tolerance 1.00e-04)
Best objective 4.149700000000e+05, best bound 4.149700000000e+05, gap 0.0000%
